83 
1 
13 
-1.000000000000000000e+00 0.000000000000000000e+00 0.000000000000000000e+00 0.000000000000000000e+00 0.000000000000000000e+00 0.000000000000000000e+00 0.000000000000000000e+00 0.000000000000000000e+00 0.000000000000000000e+00 0.000000000000000000e+00 0.000000000000000000e+00 0.000000000000000000e+00 0.000000000000000000e+00 0.000000000000000000e+00 0.000000000000000000e+00 0.000000000000000000e+00 0.000000000000000000e+00 0.000000000000000000e+00 0.000000000000000000e+00 0.000000000000000000e+00 0.000000000000000000e+00 0.000000000000000000e+00 0.000000000000000000e+00 0.000000000000000000e+00 0.000000000000000000e+00 0.000000000000000000e+00 0.000000000000000000e+00 0.000000000000000000e+00 0.000000000000000000e+00 0.000000000000000000e+00 0.000000000000000000e+00 0.000000000000000000e+00 0.000000000000000000e+00 0.000000000000000000e+00 0.000000000000000000e+00 0.000000000000000000e+00 0.000000000000000000e+00 0.000000000000000000e+00 0.000000000000000000e+00 0.000000000000000000e+00 0.000000000000000000e+00 0.000000000000000000e+00 0.000000000000000000e+00 0.000000000000000000e+00 0.000000000000000000e+00 0.000000000000000000e+00 0.000000000000000000e+00 0.000000000000000000e+00 0.000000000000000000e+00 0.000000000000000000e+00 0.000000000000000000e+00 0.000000000000000000e+00 0.000000000000000000e+00 0.000000000000000000e+00 0.000000000000000000e+00 0.000000000000000000e+00 0.000000000000000000e+00 0.000000000000000000e+00 0.000000000000000000e+00 0.000000000000000000e+00 0.000000000000000000e+00 0.000000000000000000e+00 0.000000000000000000e+00 0.000000000000000000e+00 0.000000000000000000e+00 0.000000000000000000e+00 0.000000000000000000e+00 0.000000000000000000e+00 0.000000000000000000e+00 0.000000000000000000e+00 0.000000000000000000e+00 0.000000000000000000e+00 0.000000000000000000e+00 0.000000000000000000e+00 0.000000000000000000e+00 0.000000000000000000e+00 0.000000000000000000e+00 0.000000000000000000e+00 0.000000000000000000e+00 0.000000000000000000e+00 0.000000000000000000e+00 0.000000000000000000e+00 0.000000000000000000e+00 
0 1 1 1 -1.000000000000000000e+00 
0 1 2 2 -1.000000000000000000e+00 
0 1 3 3 -1.000000000000000000e+00 
0 1 4 4 -1.000000000000000000e+00 
0 1 5 5 -1.000000000000000000e+00 
0 1 6 6 -1.000000000000000000e+00 
0 1 7 7 -1.000000000000000000e+00 
0 1 8 8 -1.000000000000000000e+00 
0 1 9 9 -1.000000000000000000e+00 
0 1 10 10 -1.000000000000000000e+00 
0 1 11 11 -1.000000000000000000e+00 
0 1 12 12 -1.000000000000000000e+00 
0 1 13 13 -1.000000000000000000e+00 
1 1 1 1 1.000000000000000000e+00 
1 1 4 13 1.000000000000000000e+00 
2 1 1 2 1.000000000000000000e+00 
2 1 13 13 1.000000000000000000e+00 
3 1 1 3 1.000000000000000000e+00 
4 1 1 4 1.000000000000000000e+00 
5 1 1 5 1.000000000000000000e+00 
6 1 1 6 1.000000000000000000e+00 
7 1 1 7 1.000000000000000000e+00 
8 1 1 8 1.000000000000000000e+00 
9 1 1 9 1.000000000000000000e+00 
10 1 1 10 1.000000000000000000e+00 
11 1 1 11 1.000000000000000000e+00 
11 1 2 2 1.000000000000000000e+00 
12 1 1 12 1.000000000000000000e+00 
12 1 2 3 1.000000000000000000e+00 
13 1 3 3 1.000000000000000000e+00 
14 1 1 13 1.000000000000000000e+00 
14 1 2 4 1.000000000000000000e+00 
15 1 3 4 1.000000000000000000e+00 
16 1 4 4 1.000000000000000000e+00 
17 1 2 5 1.000000000000000000e+00 
18 1 3 5 1.000000000000000000e+00 
19 1 4 5 1.000000000000000000e+00 
20 1 5 5 1.000000000000000000e+00 
21 1 2 6 1.000000000000000000e+00 
22 1 3 6 1.000000000000000000e+00 
23 1 4 6 1.000000000000000000e+00 
24 1 5 6 1.000000000000000000e+00 
25 1 6 6 1.000000000000000000e+00 
26 1 2 7 1.000000000000000000e+00 
27 1 3 7 1.000000000000000000e+00 
28 1 4 7 1.000000000000000000e+00 
29 1 5 7 1.000000000000000000e+00 
30 1 6 7 1.000000000000000000e+00 
31 1 7 7 1.000000000000000000e+00 
32 1 2 8 1.000000000000000000e+00 
33 1 3 8 1.000000000000000000e+00 
34 1 4 8 1.000000000000000000e+00 
35 1 5 8 1.000000000000000000e+00 
36 1 6 8 1.000000000000000000e+00 
37 1 7 8 1.000000000000000000e+00 
38 1 8 8 1.000000000000000000e+00 
39 1 2 9 1.000000000000000000e+00 
40 1 3 9 1.000000000000000000e+00 
41 1 4 9 1.000000000000000000e+00 
42 1 5 9 1.000000000000000000e+00 
43 1 6 9 1.000000000000000000e+00 
44 1 7 9 1.000000000000000000e+00 
45 1 8 9 1.000000000000000000e+00 
46 1 9 9 1.000000000000000000e+00 
47 1 2 10 1.000000000000000000e+00 
48 1 3 10 1.000000000000000000e+00 
49 1 4 10 1.000000000000000000e+00 
50 1 5 10 1.000000000000000000e+00 
51 1 6 10 1.000000000000000000e+00 
52 1 7 10 1.000000000000000000e+00 
53 1 8 10 1.000000000000000000e+00 
54 1 9 10 1.000000000000000000e+00 
55 1 10 10 1.000000000000000000e+00 
56 1 2 11 1.000000000000000000e+00 
57 1 2 12 1.000000000000000000e+00 
57 1 3 11 1.000000000000000000e+00 
58 1 3 12 1.000000000000000000e+00 
59 1 2 13 1.000000000000000000e+00 
59 1 4 11 1.000000000000000000e+00 
60 1 3 13 1.000000000000000000e+00 
60 1 4 12 1.000000000000000000e+00 
61 1 5 11 1.000000000000000000e+00 
62 1 5 12 1.000000000000000000e+00 
63 1 5 13 1.000000000000000000e+00 
64 1 6 11 1.000000000000000000e+00 
65 1 6 12 1.000000000000000000e+00 
66 1 6 13 1.000000000000000000e+00 
67 1 7 11 1.000000000000000000e+00 
68 1 7 12 1.000000000000000000e+00 
69 1 7 13 1.000000000000000000e+00 
70 1 8 11 1.000000000000000000e+00 
71 1 8 12 1.000000000000000000e+00 
72 1 8 13 1.000000000000000000e+00 
73 1 9 11 1.000000000000000000e+00 
74 1 9 12 1.000000000000000000e+00 
75 1 9 13 1.000000000000000000e+00 
76 1 10 11 1.000000000000000000e+00 
77 1 10 12 1.000000000000000000e+00 
78 1 10 13 1.000000000000000000e+00 
79 1 11 11 1.000000000000000000e+00 
80 1 11 12 1.000000000000000000e+00 
81 1 12 12 1.000000000000000000e+00 
82 1 11 13 1.000000000000000000e+00 
83 1 12 13 1.000000000000000000e+00 
